NAME : Proba_1
DIMENSION : 20
TYPE : TSP
PATH : (10)(14)+(8)+(6)+(7)+(15)+(9)+(13)+(1)+(19)+(12)(18)++(11)+(17)+(2)+(5)+(16)+(3)+(20)+(4)+
1 10 560
2 28 408
3 69 515
4 112 146
5 137 472
6 162 475
7 163 336
8 195 234
9 221 339
10 281 350
11 396 86
12 457 499
13 464 375
14 466 63
15 470 158
16 509 445
17 511 193
18 546 404
19 556 367
20 572 548
EOF
